StudentsNr = 10;
InstructorsNr = 100;
DaysNr = 2;
SlotsPerDay = 15;
AvailabilitySlotsLenght = 15;
RoomNr = 1;
ProgrammNr = 1;
DegreeNr = 3;
RolesNr = 2;
CoursesNr = 8;
InstructorsProgramm = [{1}, {1}, {1}, {1}, {1}, {1}, {1}, {1}, {1}, {1}, {1}, {1}, {1}, {1}, {1}, {1}, {1}, {1}, {1}, {1}, {1}, {1}, {1}, {1}, {1}, {1}, {1}, {1}, {1}, {1}, {1}, {1}, {1}, {1}, {1}, {1}, {1}, {1}, {1}, {1}, {1}, {1}, {1}, {1}, {1}, {1}, {1}, {1}, {1}, {1}, {1}, {1}, {1}, {1}, {1}, {1}, {1}, {1}, {1}, {1}, {1}, {1}, {1}, {1}, {1}, {1}, {1}, {1}, {1}, {1}, {1}, {1}, {1}, {1}, {1}, {1}, {1}, {1}, {1}, {1}, {1}, {1}, {1}, {1}, {1}, {1}, {1}, {1}, {1}, {1}, {1}, {1}, {1}, {1}, {1}, {1}, {1}, {1}, {1}, {1}];
InstructorRolesPerProgramm = [|{4, 7, 8, 9, 14, 17, 19, 24, 25, 27, 29, 30, 31, 36, 37, 39, 41, 42, 44, 55, 61, 65, 68, 69, 70, 75, 77, 80, 84, 87, 88, 91, 92, 93, 94, 100}, {1, 4, 7, 8, 10, 12, 13, 15, 16, 18, 19, 22, 23, 24, 31, 32, 34, 38, 40, 42, 43, 44, 45, 47, 52, 56, 57, 58, 62, 65, 66, 67, 68, 73, 74, 78, 79, 80, 85, 87, 88, 89, 91, 92}|];
InstructorsAvailability = [|1, 1, |0, 0, |0, 0, |0, 0, |1, 1, |1, 1, |0, 1, |0, 1, |0, 1, |0, 1, |0, 1, |0, 1, |0, 1, |0, 1, |1, 1, |0, 1, |0, 0, |1, 1, |0, 1, |0, 1, |0, 1, |0, 0, |0, 0, |0, 0, |1, 1, |0, 1, |1, 1, |1, 1, |0, 1, |0, 1, |0, 1, |0, 0, |1, 1, |0, 0, |1, 1, |0, 1, |0, 0, |1, 1, |0, 0, |1, 1, |1, 1, |0, 0, |1, 0, |0, 0, |1, 0, |0, 0, |1, 1, |1, 1, |1, 1, |1, 1, |1, 1, |1, 0, |0, 1, |0, 1, |1, 0, |0, 1, |0, 0, |0, 0, |0, 1, |1, 1, |1, 1, |1, 1, |0, 0, |1, 1, |1, 1, |0, 0, |0, 1, |0, 0, |1, 0, |1, 1, |1, 0, |1, 1, |0, 0, |1, 1, |0, 0, |1, 1, |0, 1, |1, 0, |0, 0, |1, 1, |0, 1, |1, 0, |0, 0, |1, 0, |0, 1, |0, 0, |1, 1, |0, 0, |0, 0, |0, 1, |0, 1, |0, 0, |1, 1, |0, 1, |0, 0, |0, 1, |1, 1, |0, 0, |0, 0, |0, 1|];
StudentsProgramm = [1, 1, 1, 1, 1, 1, 1, 1, 1, 1];
StudentsDegree = [2, 3, 1, 3, 2, 2, 3, 2, 1, 3];
StudentsSupervisorId = [72, 44, 51, 19, 27, 90, 29, 16, 79, 1];
StudentsCourseIds = [{5, 6, 8}, {1, 2, 3, 4, 5, 6, 8}, {2, 3, 6, 7, 8}, {1, 2, 3, 4, 5, 7, 8}, {3, 5, 8}, {3, 5, 7}, {1, 2, 3, 4, 6, 7, 8}, {2, 3, 7}, {1, 4, 5, 6, 7}, {1, 2, 3, 4, 5, 6, 7}];
StudentsAvailability = [|0, 1, |1, 1, |1, 1, |1, 1, |1, 1, |1, 1, |1, 1, |0, 1, |1, 1, |1, 1|];
TheoryticalMinCard = [0, 0, 0, 0, 0, 0, 0, 0, 0, 0];
CoursesInstructorIds = [{15, 74}, {17, 19, 22, 23, 30, 39, 48, 52, 53, 54, 57, 67, 68, 75, 78, 87, 90, 92}, {2, 3, 7, 8, 9, 10, 12, 13, 14, 15, 16, 17, 18, 19, 20, 21, 22, 23, 24, 28, 31, 32, 33, 34, 37, 38, 39, 40, 41, 44, 45, 46, 47, 48, 49, 51, 52, 55, 59, 61, 65, 67, 68, 70, 73, 74, 76, 78, 79, 82, 84, 85, 86, 87, 88, 89, 94, 96, 98, 100}, {5, 10, 20, 37, 52, 57, 68, 74, 80, 83, 93, 95, 99}, {2, 5, 7, 9, 11, 12, 13, 15, 16, 20, 22, 23, 24, 25, 30, 33, 34, 36, 37, 38, 43, 44, 47, 49, 50, 51, 52, 53, 54, 55, 58, 59, 65, 66, 67, 70, 71, 72, 73, 74, 75, 77, 79, 81, 83, 86, 87, 88, 90, 94, 99, 100}, {1, 2, 3, 5, 10, 11, 12, 15, 16, 19, 21, 25, 28, 29, 30, 31, 32, 33, 34, 35, 37, 38, 40, 41, 45, 47, 48, 50, 51, 53, 54, 55, 56, 58, 59, 60, 63, 65, 67, 69, 71, 72, 73, 76, 78, 79, 82, 83, 88, 89, 91, 92, 93, 95, 97, 98}, {5, 7, 9, 12, 16, 18, 19, 24, 25, 26, 36, 46, 50, 56, 57, 61, 64, 65, 67, 71, 79, 82, 92, 94}, {2, 4, 6, 16, 20, 27, 31, 36, 42, 43, 44, 57, 58, 59, 65, 69, 75, 79, 80, 86, 89, 95, 99}];
RolesDemands = [31, 38];
RolesContinuity = [];
ExamLen = [2, 1, 2, 1, 2, 2, 1, 2, 2, 1];
LunchTsMinLen = 1;
LunchStarts = [4..11, 21..25];
SupervisorAvailable = 5;
OptimalLunchLenght = [3, 1];
OptimalStartTs = [1, 0];
OptimalFinishTs = [1, 15];
MinimizeRooms = 200;
RolesSoftContinuity = [|1, 2|2, 0|];
SameDegreeInRoom = 20;
Mergeability = 0;
